30156
0 0 1 0 0 0 1 0 1 0 1 1 0 1 1 1 1 1 1 1 1 0 0 1 1 1 0 0 1 1 
18 19 2 24 2 6 15 28 18 28 29 28 13 13 28 18 13 20 24 24 18 16 23 24 10 18 24 19 29 2 19 19 19 16 28 6 20 8 24 16 18 8 6 29 8 19 13 2 19 14 24 16 24 16 8 6 11 8 18 25 29 2 18 8 13 11 23 14 28 25 18 6 19 8 23 23 20 23 8 16 10 17 8 25 29 13 6 2 24 25 28 6 25 25 2 13 11 6 17 28 28 15 25 18 29 24 29 24 16 13 19 29 18 6 11 8 28 25 17 8 14 11 17 19 19 16 2 11 19 17 28 24 25 20 23 8 13 13 28 10 11 18 11 11 25 2 24 15 11 25 2 17 23 17 8 11 2 15 13 13 13 28 10 16 23 28 23 29 13 15 23 20 19 14 29 16 17 10 29 10 2 15 16 6 11 8 6 23 17 16 2 16 6 29 25 6 25 15 10 14 

Total Run Time: 643627 ms.
